\ENCODING=ISO-8859-1
\Problem name: 

Maximize
 obj1:
Subject To
 c1:  h_0 <= 1
 c2:  h_1 <= 1
 c3:  h_2 <= 1
 c4:  h_3 <= 1
 c5:  h_4 <= 1
 c6:  h_5 <= 1
 c7:  h_6 <= 1
 c8:  h_7 <= 1
 c9:  h_8 <= 1
 c10: h_9 <= 0
 c11: h_0 <= 1
 c12: h_0 <= 1
 c13: h_0 <= 1
 c14: h_0 <= 1
 c15: h_0 <= 1
 c16: h_0 <= 1
 c17: h_0 <= 1
 c18: h_0 <= 1
 c19: h_0 <= 0
 c20: h_1 <= 1
 c21: h_1 <= 1
 c22: h_1 <= 1
 c23: h_1 <= 1
 c24: h_1 <= 1
 c25: h_1 <= 1
 c26: h_1 <= 1
 c27: h_1 <= 1
 c28: h_1 <= 0
 c29: h_2 <= 1
 c30: h_2 <= 1
 c31: h_2 <= 1
 c32: h_2 <= 1
 c33: h_2 <= 1
 c34: h_2 <= 1
 c35: h_2 <= 1
 c36: h_2 <= 1
 c37: h_2 <= 0
 c38: h_3 <= 1
 c39: h_3 <= 1
 c40: h_3 <= 1
 c41: h_3 <= 1
 c42: h_3 <= 1
 c43: h_3 <= 1
 c44: h_3 <= 1
 c45: h_3 <= 1
 c46: h_4 <= 1
 c47: h_4 <= 1
 c48: h_4 <= 1
 c49: h_4 <= 1
 c50: h_4 <= 1
 c51: h_4 <= 1
 c52: h_4 <= 1
 c53: h_5 <= 1
 c54: h_5 <= 1
 c55: h_5 <= 1
 c56: h_5 <= 1
 c57: h_5 <= 1
 c58: h_5 <= 1
 c59: h_5 <= 0
 c60: h_6 <= 1
 c61: h_6 <= 1
 c62: h_6 <= 1
 c63: h_6 <= 1
 c64: h_6 <= 1
 c65: h_6 <= 0
 c66: h_7 <= 1
 c67: h_7 <= 1
 c68: h_7 <= 1
 c69: h_7 <= 1
 c70: h_7 <= 1
 c71: h_8 <= 1
 c72: h_8 <= 1
 c73: h_8 <= 1
 c74: h_8 <= 1
 c75: h_8 <= 1
 c76: h_9 <= 1
 c77: h_9 <= 1
 c78: h_9 <= 1
 c79: h_9 <= 1
 c80: h_9 <= 1
Bounds
 0 <= h_0 <= 1
 0 <= h_1 <= 1
 0 <= h_2 <= 1
 0 <= h_3 <= 1
 0 <= h_4 <= 1
 0 <= h_5 <= 1
 0 <= h_6 <= 1
 0 <= h_7 <= 1
 0 <= h_8 <= 1
 0 <= h_9 <= 1
End
